letting initialStacks = [24, 36, 5, 49, 37, 44, 14, 43, 6, 27, 10, 8, 47, 38, 34, 51, 7, 16, 2, 48, 29, 40, 25, 21, 15, 50, 41, 42, 39, 35, 30, 18, 23, 45, 4, 19, 31, 20, 32, 1, 26, 13, 12, 33, 46, 3, 28, 11, 22, 9, 17]
